SDVRP instances/custom_instances/p01_6_splitx10_0.vrp
NAME:p01_6_splitx10_
BEST_KNOWN: 0
COMMENT: 0
DIMENSION: 247
CAPACITY: 1600
EDGE_WEIGHT_FORMAT: FUNCTION
EDGE_WEIGHT_TYPE: EXACT_2D
NODE_COORD_SECTION
1 0.00000 0.00000
2 -40 34
3 -40 34
4 44 37
5 44 37
6 44 37
7 44 37
8 44 37
9 44 37
10 44 37
11 -31 -36
12 -31 -36
13 -31 -36
14 -31 -36
15 -31 -36
16 -31 -36
17 -31 -36
18 -11 -47
19 -11 -47
20 -11 -47
21 -11 -47
22 -11 -47
23 -11 -47
24 -38 -30
25 -38 -30
26 -38 -30
27 -38 -30
28 -38 -30
29 -38 -30
30 38 -36
31 38 -36
32 38 -36
33 38 -36
34 38 -36
35 38 -36
36 38 -36
37 45 47
38 45 47
39 45 47
40 45 47
41 45 47
42 -40 34
43 -40 34
44 -40 34
45 -48 35
46 -48 35
47 -48 35
48 -48 35
49 -6 -32
50 -6 -32
51 -6 -32
52 -3 -6
53 -3 -6
54 -3 -6
55 -3 -6
56 -3 -6
57 -3 -6
58 -33 -17
59 -33 -17
60 -33 -17
61 -33 -17
62 -33 -17
63 8 4
64 8 4
65 8 4
66 8 4
67 8 4
68 8 4
69 -6 -30
70 -6 -30
71 -6 -30
72 -6 -30
73 -6 -30
74 -6 -30
75 -6 -30
76 -6 -30
77 6 38
78 6 38
79 6 38
80 6 38
81 6 38
82 -37 -42
83 -37 -42
84 -37 -42
85 -37 -42
86 -37 -42
87 -44 44
88 -44 44
89 -44 44
90 -44 44
91 -44 44
92 -44 44
93 4 -40
94 4 -40
95 4 -40
96 21 -7
97 21 -7
98 21 -7
99 21 -7
100 21 -7
101 21 -7
102 21 -7
103 25 18
104 25 18
105 25 18
106 25 18
107 25 18
108 25 18
109 10 -47
110 10 -47
111 10 -47
112 10 -47
113 10 -47
114 10 -47
115 10 -47
116 36 49
117 36 49
118 36 49
119 36 49
120 2 30
121 2 30
122 2 30
123 2 30
124 -35 7
125 -35 7
126 -35 7
127 -35 7
128 -35 7
129 -26 36
130 -26 36
131 -26 36
132 -26 36
133 -26 36
134 -26 36
135 -26 36
136 -18 -7
137 -18 -7
138 1 16
139 1 16
140 1 16
141 1 16
142 23 44
143 23 44
144 23 44
145 23 44
146 -30 49
147 -30 49
148 -30 49
149 -30 49
150 -30 49
151 -43 3
152 -43 3
153 -43 3
154 -43 3
155 -43 3
156 -2 5
157 -2 5
158 -2 5
159 -2 5
160 -2 5
161 39 39
162 39 39
163 39 39
164 39 39
165 16 -34
166 16 -34
167 16 -34
168 -21 9
169 -21 9
170 -21 9
171 -21 9
172 -21 9
173 -21 9
174 -12 45
175 -12 45
176 -12 45
177 -12 45
178 -12 45
179 15 -40
180 -35 9
181 -35 9
182 -35 9
183 -35 9
184 -35 9
185 -13 26
186 -13 26
187 -27 8
188 -27 8
189 -27 8
190 -27 8
191 -27 8
192 0 5
193 0 5
194 0 5
195 0 5
196 -39 -48
197 -39 -48
198 -39 -48
199 -39 -48
200 -39 -48
201 -39 -48
202 -39 -48
203 -47 39
204 -47 39
205 -47 39
206 -47 39
207 -47 39
208 -47 39
209 -47 39
210 -21 -10
211 -21 -10
212 -21 -10
213 -21 -10
214 -42 -25
215 -42 -25
216 -42 -25
217 -42 -25
218 -42 -25
219 -49 -13
220 -49 -13
221 -49 -13
222 -49 -13
223 -20 45
224 -20 45
225 -20 45
226 -15 19
227 -15 19
228 -15 19
229 -15 19
230 25 -30
231 25 -30
232 25 -30
233 25 -30
234 25 -30
235 25 -30
236 -41 34
237 -41 34
238 -41 34
239 -41 34
240 -41 34
241 -41 34
242 -27 -15
243 -27 -15
244 -27 -15
245 -27 -15
246 -27 -15
247 -27 -15
DEMAND_SECTION
1 0
2 320
3 10
4 320
5 160
6 80
7 16
8 16
9 16
10 2
11 320
12 320
13 16
14 16
15 16
16 16
17 6
18 320
19 320
20 16
21 16
22 16
23 12
24 160
25 80
26 16
27 16
28 16
29 2
30 320
31 320
32 80
33 16
34 16
35 16
36 12
37 160
38 16
39 16
40 16
41 2
42 320
43 80
44 10
45 160
46 80
47 16
48 4
49 320
50 16
51 14
52 320
53 16
54 16
55 16
56 16
57 6
58 320
59 16
60 16
61 16
62 2
63 320
64 80
65 16
66 16
67 16
68 2
69 320
70 160
71 80
72 16
73 16
74 16
75 16
76 6
77 160
78 80
79 16
80 16
81 8
82 320
83 160
84 80
85 16
86 14
87 320
88 16
89 16
90 16
91 16
92 6
93 320
94 320
95 160
96 320
97 160
98 80
99 16
100 16
101 16
102 2
103 160
104 16
105 16
106 16
107 16
108 6
109 320
110 160
111 16
112 16
113 16
114 16
115 6
116 160
117 80
118 16
119 4
120 320
121 320
122 16
123 14
124 320
125 160
126 80
127 16
128 14
129 320
130 160
131 80
132 16
133 16
134 16
135 2
136 320
137 80
138 320
139 320
140 16
141 14
142 160
143 80
144 16
145 4
146 320
147 320
148 16
149 16
150 8
151 160
152 16
153 16
154 16
155 2
156 320
157 16
158 16
159 16
160 2
161 160
162 80
163 16
164 4
165 320
166 16
167 4
168 320
169 320
170 80
171 16
172 16
173 8
174 320
175 320
176 80
177 16
178 4
179 320
180 320
181 80
182 16
183 16
184 8
185 320
186 80
187 320
188 320
189 80
190 16
191 14
192 160
193 80
194 16
195 4
196 320
197 320
198 80
199 16
200 16
201 16
202 2
203 320
204 320
205 80
206 16
207 16
208 16
209 2
210 320
211 320
212 16
213 4
214 320
215 160
216 80
217 16
218 4
219 320
220 160
221 16
222 4
223 320
224 160
225 10
226 160
227 80
228 16
229 14
230 160
231 80
232 16
233 16
234 16
235 2
236 320
237 320
238 16
239 16
240 16
241 2
242 320
243 160
244 80
245 16
246 16
247 8
DEPOT_SECTION
1
-1
EOF