SDVRP instances/custom_instances/p01_6_splitx10_0.sol
246 -10 16 15 14 12 13 11 82 81 83 85 84 25 23 27 24 28 26 -45 46 44 47 207 202 206 208 204 203 205 90 89 88 86 87 91 134 133 129 -54 53 51 152 153 154 151 150 124 127 126 125 123 180 183 182 181 179 -56 52 55 199 197 201 195 196 200 198 22 17 19 18 21 20 71 72 -57 60 59 58 61 214 217 213 216 215 220 221 218 219 136 -65 64 66 67 63 62 192 193 191 194 156 157 155 158 159 -68 73 70 75 69 74 50 48 49 92 93 -94 108 114 112 110 111 113 109 178 166 164 165 229 232 -95 96 100 97 99 101 98 34 29 33 30 35 32 31 234 230 231 233 -107 106 104 102 103 105 119 120 122 121 138 137 -135 212 210 209 211 246 241 242 243 244 245 -140 139 80 78 77 76 79 176 174 177 175 173 224 222 223 228 227 -141 144 142 143 118 116 115 117 39 40 37 36 38 4 5 9 8 7 3 6 160 163 161 162 -171 172 170 167 168 169 186 190 187 188 189 -184 185 145 149 148 147 146 131 128 130 132 226 -225 2 1 42 43 41 236 239 235 238 240 237 0 





OBJ=
1618.609
BEST_KNOWN=
0.000